%SETS
JOBS     = 1..2;
MACHINES = 1..9;
SPEED    = 1;

time               = array3d(JOBS,MACHINES,1..SPEED,[44, 81, 57, 61, 93, 16, 17, 11, 84, 80, 88, 98, 81, 51, 80, 20, 67, 22]);
energy             = array3d(JOBS,MACHINES,1..SPEED,[64, 44, 56, 54, 39, 85, 84, 89, 43, 44, 41, 37, 44, 60, 44, 81, 51, 80]);
precedence         = array2d(JOBS,MACHINES,[8,1,6,4,5,2,3,7,0,7,2,8,0,5,3,4,6,1]);